
Gurobi 6.5.2 (linux64) logging started Wed Mar 15 13:03:52 2017


Gurobi 6.5.2 (linux64) logging started Wed Mar 15 13:03:52 2017

Optimize a model with 401 rows, 14130 columns and 28269 nonzeros
Coefficient statistics:
  Matrix range    [1e+00, 2e+00]
  Objective range [1e+00, 1e+02]
  Bounds range    [1e+00, 1e+00]
  RHS range       [1e+00, 1e+00]
Presolve removed 197 rows and 193 columns
Presolve time: 0.06s
Presolved: 204 rows, 13937 columns, 27877 nonzeros
Variable types: 0 continuous, 13937 integer (13937 binary)

Root relaxation: objective 1.284000e+03, 314 iterations, 0.01 seconds

    Nodes    |    Current Node    |     Objective Bounds      |     Work
 Expl Unexpl |  Obj  Depth IntInf | Incumbent    BestBd   Gap | It/Node Time

     0     0 1284.00000    0   28          - 1284.00000      -     -    0s
     0     0 1291.50000    0   20          - 1291.50000      -     -    0s
     0     0 1292.75000    0   16          - 1292.75000      -     -    0s
     0     0 1294.50000    0   24          - 1294.50000      -     -    0s
     0     0 1294.50000    0   24          - 1294.50000      -     -    0s
     0     2 1294.50000    0   22          - 1294.50000      -     -    1s
  1482  1327 1319.66667  230    6          - 1295.00000      -   7.6    5s
  2819  2525 1307.00000  185    8          - 1295.50000      -   8.0   10s

Cutting planes:
  Cover: 2
  MIR: 2
  Zero half: 18
  Lazy constraints: 338

Explored 2876 nodes (23232 simplex iterations) in 10.02 seconds
Thread count was 8 (of 8 available processors)

Time limit reached
Best objective -, best bound 1.296000000000e+03, gap -
